c status 16 1469274441186
c status 12 1469274441186
c status 8 1469274441186
s td 48 8 70
b 1 1 35 46 57 18
b 2 70 4 5 6 40
b 3 69 4 5 6 39
b 4 68 4 5 6 26
b 5 67 61 62 63 64
b 6 66 61 62 63 64
b 7 61 65 62 63 64 56
b 8 62 63 64 23 56
b 9 63 64 23 25 56
b 10 64 23 25 30 56
b 11 60 53 54 55 56
b 12 59 53 54 55 56
b 13 53 58 54 55 49 56
b 14 54 55 16 49 56
b 15 55 16 17 49 56
b 16 2 35 46 57 31
b 17 13 35 46 57 32
b 18 52 45 47 48 49
b 19 51 45 47 48 49
b 20 45 50 47 48 41 49
b 21 47 48 8 41 49
b 22 48 8 9 41 49
b 23 22 27 28 29 10
b 24 27 28 29 23 25 10 26
b 25 23 25 10 30 26 56
b 26 43 38 39 40 41
b 27 44 38 39 40 41
b 28 38 42 39 40 33 41
b 29 36 31 32 30 33
b 30 24 35 46 57 7
b 31 35 46 57 31 32 7 18
b 32 11 8 9 10 7
b 33 34 31 32 30 33
b 34 37 31 32 30 33
b 35 31 32 7 30 18 33
b 36 12 8 9 10 7
b 37 3 4 5 6 15
b 38 4 5 6 39 40 15 26
b 39 39 40 15 26 33 41
b 40 20 16 17 18 15
b 41 21 16 17 18 15
b 42 14 8 9 10 7
b 43 8 9 10 7 41 49
b 44 19 16 17 18 15
b 45 16 17 18 15 49 56
b 46 10 7 30 26 41 49 56
b 47 7 30 18 26 33 41 49 56
b 48 18 15 26 33 41 49 56
1 31
31 16
31 17
31 30
31 35
35 29
35 33
35 34
35 47
47 46
47 48
48 45
46 25
46 43
48 39
45 15
45 40
45 41
45 44
25 10
25 24
10 9
24 23
9 8
8 7
7 5
7 6
43 22
43 32
22 21
32 36
32 42
21 20
20 18
20 19
39 28
39 38
28 26
28 27
38 2
38 3
38 4
38 37
15 14
14 13
13 11
13 12
